c description: Random 3-CNF over 21 variables and 89 clauses
c generator: CNFgen (0.9.2)
c copyright: (C) 2012-2022 Massimo Lauria <massimo.lauria@uniroma1.it>
c url: https://massimolauria.net/cnfgen
c command line: cnfgen --output ../CNF/21_bit_89_59.cnf randkcnf 3 21 89
c
p cnf 21 89
3 20 -21 0
-5 16 -19 0
-3 -5 -14 0
-9 -14 18 0
-7 -17 -19 0
5 -17 18 0
2 7 -20 0
-14 -18 -20 0
6 -14 -16 0
4 11 -20 0
-1 -3 5 0
-9 11 -15 0
5 17 20 0
3 -19 -21 0
-1 2 -10 0
5 6 14 0
6 12 -13 0
-3 9 -17 0
6 9 16 0
-7 -12 21 0
2 -7 -9 0
-5 7 13 0
-1 -15 -21 0
-1 -4 10 0
10 14 -16 0
3 17 18 0
5 11 20 0
4 -8 12 0
-8 -14 -15 0
3 15 -16 0
-6 -10 -14 0
14 16 -21 0
5 -14 -20 0
6 -8 20 0
-2 11 20 0
-4 15 -18 0
2 -8 11 0
3 -17 -19 0
-6 11 16 0
-13 -14 20 0
-10 12 18 0
-11 13 19 0
-7 10 -19 0
7 9 11 0
7 -8 -20 0
-8 11 17 0
-3 19 -21 0
4 12 13 0
-7 -8 21 0
-3 13 -20 0
2 11 13 0
1 4 9 0
-17 -19 20 0
6 9 10 0
-3 11 16 0
7 8 16 0
7 12 -13 0
5 6 -17 0
-5 -6 19 0
6 17 18 0
-4 12 -13 0
-5 -6 -10 0
-4 8 18 0
2 4 -7 0
-1 -2 -20 0
-7 -8 10 0
2 4 5 0
14 15 -17 0
-5 8 -12 0
6 9 -12 0
-19 20 21 0
7 8 -15 0
12 16 18 0
2 -16 17 0
-7 14 -20 0
13 18 20 0
-11 15 -20 0
1 15 19 0
9 -14 -16 0
-8 -13 21 0
1 -9 -17 0
-6 -12 -13 0
-2 -8 -11 0
1 2 -14 0
3 13 -14 0
12 -13 21 0
-3 -17 -21 0
-10 -15 18 0
5 -10 -16 0
